c File: instances/18_0.50_1.col
c
c Description: Random graph of size 18 vertices and P(0.49999999999999994) of edges between any two vertices.
p col 18 153
e 1 4
e 1 5
e 1 6
e 1 7
e 1 8
e 1 12
e 1 13
e 1 14
e 1 16
e 1 17
e 2 3
e 2 4
e 2 5
e 2 6
e 2 7
e 2 9
e 2 10
e 2 12
e 2 13
e 2 15
e 2 16
e 2 17
e 3 7
e 3 8
e 3 10
e 3 11
e 3 13
e 3 14
e 3 18
e 4 6
e 4 8
e 4 9
e 4 10
e 4 11
e 4 14
e 4 15
e 4 17
e 4 18
e 5 8
e 5 14
e 5 16
e 5 18
e 6 8
e 6 9
e 6 10
e 6 11
e 6 13
e 6 14
e 6 15
e 6 16
e 6 18
e 7 9
e 7 10
e 7 12
e 7 13
e 7 15
e 7 18
e 8 9
e 8 11
e 8 13
e 8 14
e 8 18
e 9 11
e 9 16
e 9 17
e 9 18
e 10 11
e 10 13
e 10 14
e 10 15
e 10 16
e 10 17
e 11 12
e 11 13
e 11 16
e 11 17
e 12 13
e 12 14
e 12 15
e 13 14
e 13 16
e 13 17
e 13 18
e 14 18
e 15 16
e 15 18